sat
(:SPACER-cex-depth                 3
 :SPACER-inductive-gen             2
 :SPACER-inductive-gen-weaken-fail 2
 :SPACER-max-depth                 3
 :SPACER-max-query-lvl             3
 :SPACER-num-active-lemmas         3
 :SPACER-num-ctp-blocked           1
 :SPACER-num-is_invariant          4
 :SPACER-num-lemmas                5
 :SPACER-num-pobs                  3
 :SPACER-num-queries               4
 :SPACER-num-reach-queries         3
 :SPACER-num-reuse-reach-facts     1
 :added-eqs                        324
 :arith-assert-diseq               86
 :arith-assert-lower               364
 :arith-assert-upper               282
 :arith-bound-prop                 54
 :arith-conflicts                  12
 :arith-eq-adapter                 108
 :arith-fixed-eqs                  56
 :arith-num-rows                   32
 :arith-offset-eqs                 14
 :arith-pivots                     96
 :arith-row-summations             116
 :arith-tableau-max-columns        80
 :arith-tableau-max-rows           32
 :conflicts                        46
 :decisions                        294
 :del-clause                       94
 :final-checks                     20
 :iuc_solver.num_proxies           8
 :max-memory                       30.75
 :memory                           30.44
 :mk-bool-var                      598
 :mk-clause                        674
 :num-allocs                       5140161
 :num-checks                       42
 :pool_solver.checks               21
 :pool_solver.checks.sat           10
 :propagations                     1034
 :rlimit-count                     10821
 :time                             0.03
 :time.pool_solver.smt.total       0.01
 :time.pool_solver.smt.total.sat   0.00
 :time.spacer.init_rules           0.00
 :time.spacer.solve                0.01
 :time.spacer.solve.propagate      0.00
 :time.spacer.solve.reach          0.01
 :time.spacer.solve.reach.cluster  0.00
 :time.spacer.solve.reach.is-reach 0.00)
(:max-memory   30.75
 :memory       30.44
 :num-allocs   5140161
 :rlimit-count 10821
 :time         0.03
 :total-time   0.04)
